\ LP format - for model browsing. Use MPS format to capture full model detail.
Minimize
  12 x[0][0] + 13 x[0][1] + 6 x[0][2] + x[0][4] + 8 x[1][0] + 4 x[1][1]
   + 9 x[1][2] + x[1][3] + 2 x[1][4] + 2 x[2][0] + 6 x[2][1] + 6 x[2][2]
   + x[2][4] + 3 x[3][0] + 5 x[3][1] + 2 x[3][2] + x[3][3] + 8 x[3][4]
   + 8 x[4][0] + 5 x[4][2] + 10 x[4][3] + 8 x[4][4] + 2 x[5][0] + 3 x[5][2]
   + 4 x[5][3] + x[5][4] + 4 y[0] + 3 y[1] + 4 y[2] + 4 y[3] + 7 y[4]
   + 0 y[5]
Subject To
 c(0): x[0][0] + x[0][1] + x[0][2] + x[0][3] + x[0][4] = 1
 c(1): x[1][0] + x[1][1] + x[1][2] + x[1][3] + x[1][4] = 1
 c(2): x[2][0] + x[2][1] + x[2][2] + x[2][3] + x[2][4] = 1
 c(3): x[3][0] + x[3][1] + x[3][2] + x[3][3] + x[3][4] = 1
 c(4): x[4][0] + x[4][1] + x[4][2] + x[4][3] + x[4][4] = 1
 c(5): x[5][0] + x[5][1] + x[5][2] + x[5][3] + x[5][4] = 1
 c(6): x[0][0] - y[0] <= 0
 c(7): x[0][1] - y[1] <= 0
 c(8): x[0][2] - y[2] <= 0
 c(9): x[0][3] - y[3] <= 0
 c(10): x[0][4] - y[4] <= 0
 c(11): x[1][0] - y[0] <= 0
 c(12): x[1][1] - y[1] <= 0
 c(13): x[1][2] - y[2] <= 0
 c(14): x[1][3] - y[3] <= 0
 c(15): x[1][4] - y[4] <= 0
 c(16): x[2][0] - y[0] <= 0
 c(17): x[2][1] - y[1] <= 0
 c(18): x[2][2] - y[2] <= 0
 c(19): x[2][3] - y[3] <= 0
 c(20): x[2][4] - y[4] <= 0
 c(21): x[3][0] - y[0] <= 0
 c(22): x[3][1] - y[1] <= 0
 c(23): x[3][2] - y[2] <= 0
 c(24): x[3][3] - y[3] <= 0
 c(25): x[3][4] - y[4] <= 0
 c(26): x[4][0] - y[0] <= 0
 c(27): x[4][1] - y[1] <= 0
 c(28): x[4][2] - y[2] <= 0
 c(29): x[4][3] - y[3] <= 0
 c(30): x[4][4] - y[4] <= 0
 c(31): x[5][0] - y[0] <= 0
 c(32): x[5][1] - y[1] <= 0
 c(33): x[5][2] - y[2] <= 0
 c(34): x[5][3] - y[3] <= 0
 c(35): x[5][4] - y[4] <= 0
Bounds
Binaries
 x[0][0] x[0][1] x[0][2] x[0][3] x[0][4] x[1][0] x[1][1] x[1][2] x[1][3]
 x[1][4] x[2][0] x[2][1] x[2][2] x[2][3] x[2][4] x[3][0] x[3][1] x[3][2]
 x[3][3] x[3][4] x[4][0] x[4][1] x[4][2] x[4][3] x[4][4] x[5][0] x[5][1]
 x[5][2] x[5][3] x[5][4] y[0] y[1] y[2] y[3] y[4] y[5]
End
